33D32945 STP File, STP Format Version 1.0

SECTION Comments
Name "edge_n12_d3_s24"
Problem "Euclidean Steiner Tree Problem"
Remark "Generated with STPGenerator. 3 dimensions."
END

SECTION Graph
Nodes 12
END

SECTION Coordinates
DDD 0 0.0877142293 0.0877142293 0.0877142293
DDD 1 0.8987790253 0.8987790253 0.8987790253
DDD 2 0.2479340957 0.2479340957 0.2479340957
DDD 3 0.6666313995 0.6666313995 0.6666313995
DDD 4 0.8988103708 0.8988103708 0.8988103708
DDD 5 0.2810884273 0.2810884273 0.2810884273
DDD 6 0.6454682083 0.6454682083 0.6454682083
DDD 7 0.0593314241 0.0593314241 0.0593314241
DDD 8 0.8095185197 0.8095185197 0.8095185197
DDD 9 0.5094773627 0.5094773627 0.5094773627
DDD 10 0.2020136715 0.2020136715 0.2020136715
DDD 11 0.8590005528 0.8590005528 0.8590005528
END
